sat
(
  (define-fun R () String
    "")
  (define-fun N () String
    "")
  (define-fun S () String
    "aa")
  (define-fun J () String
    "")
  (define-fun M () String
    "a")
  (define-fun K () String
    "")
  (define-fun P () String
    "")
  (define-fun H () String
    "aa")
)
